p cnf 435 1227
a 1 2 3 4 5 6 7 8 9 10 11 12 13 14 15 16 17 18 19 20 21 22 23 24 25 26 27 28 29 30 31 32 33 34 35 36 37 38 39 40 0
e 41 42 43 44 45 46 47 48 49 50 51 52 53 54 55 56 57 58 59 60 61 62 63 64 65 66 67 68 69 70 71 72 73 74 75 76 77 78 79 80 81 82 83 84 85 86 87 88 89 90 91 92 93 94 95 96 97 98 99 100 101 102 103 104 105 106 107 108 109 110 111 112 113 114 115 116 117 118 119 120 121 122 123 124 125 126 127 128 129 130 131 132 133 134 135 136 137 138 139 140 141 142 143 144 145 146 147 148 149 150 151 152 153 154 155 156 157 158 159 160 161 162 163 164 165 166 167 168 169 170 171 172 173 174 175 176 177 178 179 180 181 182 183 184 185 186 187 188 189 190 191 192 193 194 195 196 197 198 199 200 201 202 203 204 205 206 207 208 209 210 211 212 213 214 215 216 217 218 219 220 221 222 223 224 225 226 227 228 229 230 231 232 233 234 235 236 237 238 239 240 241 242 243 244 245 246 247 248 249 250 251 252 253 254 255 256 257 258 259 260 261 262 263 264 265 266 267 268 269 270 271 272 273 274 275 276 277 278 279 280 281 282 283 284 285 286 287 288 289 290 291 292 293 294 295 296 297 298 299 300 301 302 303 304 305 306 307 308 309 310 311 312 313 314 315 316 317 318 319 320 321 322 323 324 325 326 327 328 329 330 331 332 333 334 335 336 337 338 339 340 341 342 343 344 345 346 347 348 349 350 351 352 353 354 355 356 357 358 359 360 361 362 363 364 365 366 367 368 369 370 371 372 373 374 375 376 377 378 379 380 381 382 383 384 385 386 387 388 389 390 391 392 393 394 395 396 397 398 399 400 401 402 403 404 405 406 407 408 409 410 411 412 413 414 415 416 417 418 419 420 421 422 423 424 425 426 427 428 429 430 431 432 433 434 0
-1 -73 0
-2 -73 0
-3 -73 0
1 2 3 73 0
-4 -74 0
-5 -74 0
-6 -74 0
4 5 6 74 0
73 -75 0
74 -75 0
-7 -75 0
-8 -75 0
7 8 75 -73 -74 0
-7 -8 -76 0
7 8 -76 0
8 76 -7 0
7 76 -8 0
77 -1 0
1 -77 0
-2 -77 -78 0
2 77 -78 0
77 78 -2 0
2 78 -77 0
2 -79 0
77 -79 0
79 -2 -77 0
80 -79 0
79 -80 0
-3 -80 -81 0
3 80 -81 0
80 81 -3 0
3 81 -80 0
3 -82 0
80 -82 0
82 -3 -80 0
83 -82 0
82 -83 0
-76 -84 0
-1 -84 0
76 1 84 0
76 -85 0
1 -85 0
85 -76 -1 0
86 -84 0
86 -85 0
84 85 -86 0
-76 -87 0
78 -87 0
76 87 -78 0
76 -88 0
2 -88 0
88 -76 -2 0
89 -87 0
89 -88 0
87 88 -89 0
-76 -90 0
81 -90 0
76 90 -81 0
76 -91 0
3 -91 0
91 -76 -3 0
92 -90 0
92 -91 0
90 91 -92 0
-9 -86 -93 0
9 86 -93 0
86 93 -9 0
9 93 -86 0
-10 -89 -94 0
10 89 -94 0
89 94 -10 0
10 94 -89 0
-11 -92 -95 0
11 92 -95 0
92 95 -11 0
11 95 -92 0
-93 -96 0
-94 -96 0
-95 -96 0
93 94 95 96 0
97 -4 0
4 -97 0
-5 -97 -98 0
5 97 -98 0
97 98 -5 0
5 98 -97 0
5 -99 0
97 -99 0
99 -5 -97 0
100 -99 0
99 -100 0
-6 -100 -101 0
6 100 -101 0
100 101 -6 0
6 101 -100 0
6 -102 0
100 -102 0
102 -6 -100 0
103 -102 0
102 -103 0
-76 -104 0
4 -104 0
76 104 -4 0
76 -105 0
-4 -105 0
4 105 -76 0
106 -104 0
106 -105 0
104 105 -106 0
-76 -107 0
5 -107 0
76 107 -5 0
76 -108 0
98 -108 0
108 -76 -98 0
109 -107 0
109 -108 0
107 108 -109 0
-76 -110 0
6 -110 0
76 110 -6 0
76 -111 0
101 -111 0
111 -76 -101 0
112 -110 0
112 -111 0
110 111 -112 0
-12 -106 -113 0
12 106 -113 0
106 113 -12 0
12 113 -106 0
-13 -109 -114 0
13 109 -114 0
109 114 -13 0
13 114 -109 0
-14 -112 -115 0
14 112 -115 0
112 115 -14 0
14 115 -112 0
-113 -116 0
-114 -116 0
-115 -116 0
113 114 115 116 0
8 -15 -117 0
15 -8 -117 0
117 -15 -8 0
15 8 117 0
-16 -7 -118 0
16 7 -118 0
7 118 -16 0
16 118 -7 0
96 -119 0
116 -119 0
-117 -119 0
-118 -119 0
117 118 119 -96 -116 0
-15 -16 -120 0
15 16 -120 0
16 120 -15 0
15 120 -16 0
121 -9 0
9 -121 0
-10 -121 -122 0
10 121 -122 0
121 122 -10 0
10 122 -121 0
10 -123 0
121 -123 0
123 -10 -121 0
124 -123 0
123 -124 0
-11 -124 -125 0
11 124 -125 0
124 125 -11 0
11 125 -124 0
11 -126 0
124 -126 0
126 -11 -124 0
127 -126 0
126 -127 0
-120 -128 0
-9 -128 0
120 9 128 0
120 -129 0
9 -129 0
129 -120 -9 0
130 -128 0
130 -129 0
128 129 -130 0
-120 -131 0
122 -131 0
120 131 -122 0
120 -132 0
10 -132 0
132 -120 -10 0
133 -131 0
133 -132 0
131 132 -133 0
-120 -134 0
125 -134 0
120 134 -125 0
120 -135 0
11 -135 0
135 -120 -11 0
136 -134 0
136 -135 0
134 135 -136 0
-17 -130 -137 0
17 130 -137 0
130 137 -17 0
17 137 -130 0
-18 -133 -138 0
18 133 -138 0
133 138 -18 0
18 138 -133 0
-19 -136 -139 0
19 136 -139 0
136 139 -19 0
19 139 -136 0
-137 -140 0
-138 -140 0
-139 -140 0
137 138 139 140 0
141 -12 0
12 -141 0
-13 -141 -142 0
13 141 -142 0
141 142 -13 0
13 142 -141 0
13 -143 0
141 -143 0
143 -13 -141 0
144 -143 0
143 -144 0
-14 -144 -145 0
14 144 -145 0
144 145 -14 0
14 145 -144 0
14 -146 0
144 -146 0
146 -14 -144 0
147 -146 0
146 -147 0
-120 -148 0
12 -148 0
120 148 -12 0
120 -149 0
-12 -149 0
12 149 -120 0
150 -148 0
150 -149 0
148 149 -150 0
-120 -151 0
13 -151 0
120 151 -13 0
120 -152 0
142 -152 0
152 -120 -142 0
153 -151 0
153 -152 0
151 152 -153 0
-120 -154 0
14 -154 0
120 154 -14 0
120 -155 0
145 -155 0
155 -120 -145 0
156 -154 0
156 -155 0
154 155 -156 0
-20 -150 -157 0
20 150 -157 0
150 157 -20 0
20 157 -150 0
-21 -153 -158 0
21 153 -158 0
153 158 -21 0
21 158 -153 0
-22 -156 -159 0
22 156 -159 0
156 159 -22 0
22 159 -156 0
-157 -160 0
-158 -160 0
-159 -160 0
157 158 159 160 0
16 -23 -161 0
23 -16 -161 0
161 -23 -16 0
23 16 161 0
-24 -15 -162 0
24 15 -162 0
15 162 -24 0
24 162 -15 0
140 -163 0
160 -163 0
-161 -163 0
-162 -163 0
161 162 163 -140 -160 0
-23 -24 -164 0
23 24 -164 0
24 164 -23 0
23 164 -24 0
165 -17 0
17 -165 0
-18 -165 -166 0
18 165 -166 0
165 166 -18 0
18 166 -165 0
18 -167 0
165 -167 0
167 -18 -165 0
168 -167 0
167 -168 0
-19 -168 -169 0
19 168 -169 0
168 169 -19 0
19 169 -168 0
19 -170 0
168 -170 0
170 -19 -168 0
171 -170 0
170 -171 0
-164 -172 0
-17 -172 0
164 17 172 0
164 -173 0
17 -173 0
173 -164 -17 0
174 -172 0
174 -173 0
172 173 -174 0
-164 -175 0
166 -175 0
164 175 -166 0
164 -176 0
18 -176 0
176 -164 -18 0
177 -175 0
177 -176 0
175 176 -177 0
-164 -178 0
169 -178 0
164 178 -169 0
164 -179 0
19 -179 0
179 -164 -19 0
180 -178 0
180 -179 0
178 179 -180 0
-25 -174 -181 0
25 174 -181 0
174 181 -25 0
25 181 -174 0
-26 -177 -182 0
26 177 -182 0
177 182 -26 0
26 182 -177 0
-27 -180 -183 0
27 180 -183 0
180 183 -27 0
27 183 -180 0
-181 -184 0
-182 -184 0
-183 -184 0
181 182 183 184 0
185 -20 0
20 -185 0
-21 -185 -186 0
21 185 -186 0
185 186 -21 0
21 186 -185 0
21 -187 0
185 -187 0
187 -21 -185 0
188 -187 0
187 -188 0
-22 -188 -189 0
22 188 -189 0
188 189 -22 0
22 189 -188 0
22 -190 0
188 -190 0
190 -22 -188 0
191 -190 0
190 -191 0
-164 -192 0
20 -192 0
164 192 -20 0
164 -193 0
-20 -193 0
20 193 -164 0
194 -192 0
194 -193 0
192 193 -194 0
-164 -195 0
21 -195 0
164 195 -21 0
164 -196 0
186 -196 0
196 -164 -186 0
197 -195 0
197 -196 0
195 196 -197 0
-164 -198 0
22 -198 0
164 198 -22 0
164 -199 0
189 -199 0
199 -164 -189 0
200 -198 0
200 -199 0
198 199 -200 0
-28 -194 -201 0
28 194 -201 0
194 201 -28 0
28 201 -194 0
-29 -197 -202 0
29 197 -202 0
197 202 -29 0
29 202 -197 0
-30 -200 -203 0
30 200 -203 0
200 203 -30 0
30 203 -200 0
-201 -204 0
-202 -204 0
-203 -204 0
201 202 203 204 0
24 -31 -205 0
31 -24 -205 0
205 -31 -24 0
31 24 205 0
-32 -23 -206 0
32 23 -206 0
23 206 -32 0
32 206 -23 0
184 -207 0
204 -207 0
-205 -207 0
-206 -207 0
205 206 207 -184 -204 0
-31 -32 -208 0
31 32 -208 0
32 208 -31 0
31 208 -32 0
209 -25 0
25 -209 0
-26 -209 -210 0
26 209 -210 0
209 210 -26 0
26 210 -209 0
26 -211 0
209 -211 0
211 -26 -209 0
212 -211 0
211 -212 0
-27 -212 -213 0
27 212 -213 0
212 213 -27 0
27 213 -212 0
27 -214 0
212 -214 0
214 -27 -212 0
215 -214 0
214 -215 0
-208 -216 0
-25 -216 0
208 25 216 0
208 -217 0
25 -217 0
217 -208 -25 0
218 -216 0
218 -217 0
216 217 -218 0
-208 -219 0
210 -219 0
208 219 -210 0
208 -220 0
26 -220 0
220 -208 -26 0
221 -219 0
221 -220 0
219 220 -221 0
-208 -222 0
213 -222 0
208 222 -213 0
208 -223 0
27 -223 0
223 -208 -27 0
224 -222 0
224 -223 0
222 223 -224 0
-33 -218 -225 0
33 218 -225 0
218 225 -33 0
33 225 -218 0
-34 -221 -226 0
34 221 -226 0
221 226 -34 0
34 226 -221 0
-35 -224 -227 0
35 224 -227 0
224 227 -35 0
35 227 -224 0
-225 -228 0
-226 -228 0
-227 -228 0
225 226 227 228 0
229 -28 0
28 -229 0
-29 -229 -230 0
29 229 -230 0
229 230 -29 0
29 230 -229 0
29 -231 0
229 -231 0
231 -29 -229 0
232 -231 0
231 -232 0
-30 -232 -233 0
30 232 -233 0
232 233 -30 0
30 233 -232 0
30 -234 0
232 -234 0
234 -30 -232 0
235 -234 0
234 -235 0
-208 -236 0
28 -236 0
208 236 -28 0
208 -237 0
-28 -237 0
28 237 -208 0
238 -236 0
238 -237 0
236 237 -238 0
-208 -239 0
29 -239 0
208 239 -29 0
208 -240 0
230 -240 0
240 -208 -230 0
241 -239 0
241 -240 0
239 240 -241 0
-208 -242 0
30 -242 0
208 242 -30 0
208 -243 0
233 -243 0
243 -208 -233 0
244 -242 0
244 -243 0
242 243 -244 0
-36 -238 -245 0
36 238 -245 0
238 245 -36 0
36 245 -238 0
-37 -241 -246 0
37 241 -246 0
241 246 -37 0
37 246 -241 0
-38 -244 -247 0
38 244 -247 0
244 247 -38 0
38 247 -244 0
-245 -248 0
-246 -248 0
-247 -248 0
245 246 247 248 0
32 -39 -249 0
39 -32 -249 0
249 -39 -32 0
39 32 249 0
-40 -31 -250 0
40 31 -250 0
31 250 -40 0
40 250 -31 0
228 -251 0
248 -251 0
-249 -251 0
-250 -251 0
249 250 251 -228 -248 0
75 -252 0
119 -252 0
163 -252 0
207 -252 0
251 -252 0
252 -75 -119 -163 -207 -251 0
-41 -253 0
-42 -253 0
-43 -253 0
41 42 43 253 0
-44 -254 0
-45 -254 0
-46 -254 0
44 45 46 254 0
253 -255 0
254 -255 0
-47 -255 0
-48 -255 0
47 48 255 -253 -254 0
-47 -48 -256 0
47 48 -256 0
48 256 -47 0
47 256 -48 0
257 -41 0
41 -257 0
-42 -257 -258 0
42 257 -258 0
257 258 -42 0
42 258 -257 0
42 -259 0
257 -259 0
259 -42 -257 0
260 -259 0
259 -260 0
-43 -260 -261 0
43 260 -261 0
260 261 -43 0
43 261 -260 0
43 -262 0
260 -262 0
262 -43 -260 0
263 -262 0
262 -263 0
-256 -264 0
-41 -264 0
256 41 264 0
256 -265 0
41 -265 0
265 -256 -41 0
266 -264 0
266 -265 0
264 265 -266 0
-256 -267 0
258 -267 0
256 267 -258 0
256 -268 0
42 -268 0
268 -256 -42 0
269 -267 0
269 -268 0
267 268 -269 0
-256 -270 0
261 -270 0
256 270 -261 0
256 -271 0
43 -271 0
271 -256 -43 0
272 -270 0
272 -271 0
270 271 -272 0
-49 -266 -273 0
49 266 -273 0
266 273 -49 0
49 273 -266 0
-50 -269 -274 0
50 269 -274 0
269 274 -50 0
50 274 -269 0
-51 -272 -275 0
51 272 -275 0
272 275 -51 0
51 275 -272 0
-273 -276 0
-274 -276 0
-275 -276 0
273 274 275 276 0
277 -44 0
44 -277 0
-45 -277 -278 0
45 277 -278 0
277 278 -45 0
45 278 -277 0
45 -279 0
277 -279 0
279 -45 -277 0
280 -279 0
279 -280 0
-46 -280 -281 0
46 280 -281 0
280 281 -46 0
46 281 -280 0
46 -282 0
280 -282 0
282 -46 -280 0
283 -282 0
282 -283 0
-256 -284 0
44 -284 0
256 284 -44 0
256 -285 0
-44 -285 0
44 285 -256 0
286 -284 0
286 -285 0
284 285 -286 0
-256 -287 0
45 -287 0
256 287 -45 0
256 -288 0
278 -288 0
288 -256 -278 0
289 -287 0
289 -288 0
287 288 -289 0
-256 -290 0
46 -290 0
256 290 -46 0
256 -291 0
281 -291 0
291 -256 -281 0
292 -290 0
292 -291 0
290 291 -292 0
-52 -286 -293 0
52 286 -293 0
286 293 -52 0
52 293 -286 0
-53 -289 -294 0
53 289 -294 0
289 294 -53 0
53 294 -289 0
-54 -292 -295 0
54 292 -295 0
292 295 -54 0
54 295 -292 0
-293 -296 0
-294 -296 0
-295 -296 0
293 294 295 296 0
48 -55 -297 0
55 -48 -297 0
297 -55 -48 0
55 48 297 0
-56 -47 -298 0
56 47 -298 0
47 298 -56 0
56 298 -47 0
276 -299 0
296 -299 0
-297 -299 0
-298 -299 0
297 298 299 -276 -296 0
-55 -56 -300 0
55 56 -300 0
56 300 -55 0
55 300 -56 0
301 -49 0
49 -301 0
-50 -301 -302 0
50 301 -302 0
301 302 -50 0
50 302 -301 0
50 -303 0
301 -303 0
303 -50 -301 0
304 -303 0
303 -304 0
-51 -304 -305 0
51 304 -305 0
304 305 -51 0
51 305 -304 0
51 -306 0
304 -306 0
306 -51 -304 0
307 -306 0
306 -307 0
-300 -308 0
-49 -308 0
300 49 308 0
300 -309 0
49 -309 0
309 -300 -49 0
310 -308 0
310 -309 0
308 309 -310 0
-300 -311 0
302 -311 0
300 311 -302 0
300 -312 0
50 -312 0
312 -300 -50 0
313 -311 0
313 -312 0
311 312 -313 0
-300 -314 0
305 -314 0
300 314 -305 0
300 -315 0
51 -315 0
315 -300 -51 0
316 -314 0
316 -315 0
314 315 -316 0
-57 -310 -317 0
57 310 -317 0
310 317 -57 0
57 317 -310 0
-58 -313 -318 0
58 313 -318 0
313 318 -58 0
58 318 -313 0
-59 -316 -319 0
59 316 -319 0
316 319 -59 0
59 319 -316 0
-317 -320 0
-318 -320 0
-319 -320 0
317 318 319 320 0
321 -52 0
52 -321 0
-53 -321 -322 0
53 321 -322 0
321 322 -53 0
53 322 -321 0
53 -323 0
321 -323 0
323 -53 -321 0
324 -323 0
323 -324 0
-54 -324 -325 0
54 324 -325 0
324 325 -54 0
54 325 -324 0
54 -326 0
324 -326 0
326 -54 -324 0
327 -326 0
326 -327 0
-300 -328 0
52 -328 0
300 328 -52 0
300 -329 0
-52 -329 0
52 329 -300 0
330 -328 0
330 -329 0
328 329 -330 0
-300 -331 0
53 -331 0
300 331 -53 0
300 -332 0
322 -332 0
332 -300 -322 0
333 -331 0
333 -332 0
331 332 -333 0
-300 -334 0
54 -334 0
300 334 -54 0
300 -335 0
325 -335 0
335 -300 -325 0
336 -334 0
336 -335 0
334 335 -336 0
-60 -330 -337 0
60 330 -337 0
330 337 -60 0
60 337 -330 0
-61 -333 -338 0
61 333 -338 0
333 338 -61 0
61 338 -333 0
-62 -336 -339 0
62 336 -339 0
336 339 -62 0
62 339 -336 0
-337 -340 0
-338 -340 0
-339 -340 0
337 338 339 340 0
56 -63 -341 0
63 -56 -341 0
341 -63 -56 0
63 56 341 0
-64 -55 -342 0
64 55 -342 0
55 342 -64 0
64 342 -55 0
320 -343 0
340 -343 0
-341 -343 0
-342 -343 0
341 342 343 -320 -340 0
-63 -64 -344 0
63 64 -344 0
64 344 -63 0
63 344 -64 0
345 -57 0
57 -345 0
-58 -345 -346 0
58 345 -346 0
345 346 -58 0
58 346 -345 0
58 -347 0
345 -347 0
347 -58 -345 0
348 -347 0
347 -348 0
-59 -348 -349 0
59 348 -349 0
348 349 -59 0
59 349 -348 0
59 -350 0
348 -350 0
350 -59 -348 0
351 -350 0
350 -351 0
-344 -352 0
-57 -352 0
344 57 352 0
344 -353 0
57 -353 0
353 -344 -57 0
354 -352 0
354 -353 0
352 353 -354 0
-344 -355 0
346 -355 0
344 355 -346 0
344 -356 0
58 -356 0
356 -344 -58 0
357 -355 0
357 -356 0
355 356 -357 0
-344 -358 0
349 -358 0
344 358 -349 0
344 -359 0
59 -359 0
359 -344 -59 0
360 -358 0
360 -359 0
358 359 -360 0
-65 -354 -361 0
65 354 -361 0
354 361 -65 0
65 361 -354 0
-66 -357 -362 0
66 357 -362 0
357 362 -66 0
66 362 -357 0
-67 -360 -363 0
67 360 -363 0
360 363 -67 0
67 363 -360 0
-361 -364 0
-362 -364 0
-363 -364 0
361 362 363 364 0
365 -60 0
60 -365 0
-61 -365 -366 0
61 365 -366 0
365 366 -61 0
61 366 -365 0
61 -367 0
365 -367 0
367 -61 -365 0
368 -367 0
367 -368 0
-62 -368 -369 0
62 368 -369 0
368 369 -62 0
62 369 -368 0
62 -370 0
368 -370 0
370 -62 -368 0
371 -370 0
370 -371 0
-344 -372 0
60 -372 0
344 372 -60 0
344 -373 0
-60 -373 0
60 373 -344 0
374 -372 0
374 -373 0
372 373 -374 0
-344 -375 0
61 -375 0
344 375 -61 0
344 -376 0
366 -376 0
376 -344 -366 0
377 -375 0
377 -376 0
375 376 -377 0
-344 -378 0
62 -378 0
344 378 -62 0
344 -379 0
369 -379 0
379 -344 -369 0
380 -378 0
380 -379 0
378 379 -380 0
-68 -374 -381 0
68 374 -381 0
374 381 -68 0
68 381 -374 0
-69 -377 -382 0
69 377 -382 0
377 382 -69 0
69 382 -377 0
-70 -380 -383 0
70 380 -383 0
380 383 -70 0
70 383 -380 0
-381 -384 0
-382 -384 0
-383 -384 0
381 382 383 384 0
64 -71 -385 0
71 -64 -385 0
385 -71 -64 0
71 64 385 0
-72 -63 -386 0
72 63 -386 0
63 386 -72 0
72 386 -63 0
364 -387 0
384 -387 0
-385 -387 0
-386 -387 0
385 386 387 -364 -384 0
255 -388 0
299 -388 0
343 -388 0
387 -388 0
388 -255 -299 -343 -387 0
-33 -41 -389 0
33 41 -389 0
41 389 -33 0
33 389 -41 0
-34 -42 -390 0
34 42 -390 0
42 390 -34 0
34 390 -42 0
-35 -43 -391 0
35 43 -391 0
43 391 -35 0
35 391 -43 0
-389 -392 0
-390 -392 0
-391 -392 0
389 390 391 392 0
-36 -44 -393 0
36 44 -393 0
44 393 -36 0
36 393 -44 0
-37 -45 -394 0
37 45 -394 0
45 394 -37 0
37 394 -45 0
-38 -46 -395 0
38 46 -395 0
46 395 -38 0
38 395 -46 0
-393 -396 0
-394 -396 0
-395 -396 0
393 394 395 396 0
-39 -47 -397 0
39 47 -397 0
47 397 -39 0
39 397 -47 0
-40 -48 -398 0
40 48 -398 0
48 398 -40 0
40 398 -48 0
392 -399 0
396 -399 0
-397 -399 0
-398 -399 0
397 398 399 -392 -396 0
-33 -49 -400 0
33 49 -400 0
49 400 -33 0
33 400 -49 0
-34 -50 -401 0
34 50 -401 0
50 401 -34 0
34 401 -50 0
-35 -51 -402 0
35 51 -402 0
51 402 -35 0
35 402 -51 0
-400 -403 0
-401 -403 0
-402 -403 0
400 401 402 403 0
-36 -52 -404 0
36 52 -404 0
52 404 -36 0
36 404 -52 0
-37 -53 -405 0
37 53 -405 0
53 405 -37 0
37 405 -53 0
-38 -54 -406 0
38 54 -406 0
54 406 -38 0
38 406 -54 0
-404 -407 0
-405 -407 0
-406 -407 0
404 405 406 407 0
-39 -55 -408 0
39 55 -408 0
55 408 -39 0
39 408 -55 0
-40 -56 -409 0
40 56 -409 0
56 409 -40 0
40 409 -56 0
403 -410 0
407 -410 0
-408 -410 0
-409 -410 0
408 409 410 -403 -407 0
-33 -57 -411 0
33 57 -411 0
57 411 -33 0
33 411 -57 0
-34 -58 -412 0
34 58 -412 0
58 412 -34 0
34 412 -58 0
-35 -59 -413 0
35 59 -413 0
59 413 -35 0
35 413 -59 0
-411 -414 0
-412 -414 0
-413 -414 0
411 412 413 414 0
-36 -60 -415 0
36 60 -415 0
60 415 -36 0
36 415 -60 0
-37 -61 -416 0
37 61 -416 0
61 416 -37 0
37 416 -61 0
-38 -62 -417 0
38 62 -417 0
62 417 -38 0
38 417 -62 0
-415 -418 0
-416 -418 0
-417 -418 0
415 416 417 418 0
-39 -63 -419 0
39 63 -419 0
63 419 -39 0
39 419 -63 0
-40 -64 -420 0
40 64 -420 0
64 420 -40 0
40 420 -64 0
414 -421 0
418 -421 0
-419 -421 0
-420 -421 0
419 420 421 -414 -418 0
-33 -65 -422 0
33 65 -422 0
65 422 -33 0
33 422 -65 0
-34 -66 -423 0
34 66 -423 0
66 423 -34 0
34 423 -66 0
-35 -67 -424 0
35 67 -424 0
67 424 -35 0
35 424 -67 0
-422 -425 0
-423 -425 0
-424 -425 0
422 423 424 425 0
-36 -68 -426 0
36 68 -426 0
68 426 -36 0
36 426 -68 0
-37 -69 -427 0
37 69 -427 0
69 427 -37 0
37 427 -69 0
-38 -70 -428 0
38 70 -428 0
70 428 -38 0
38 428 -70 0
-426 -429 0
-427 -429 0
-428 -429 0
426 427 428 429 0
-39 -71 -430 0
39 71 -430 0
71 430 -39 0
39 430 -71 0
-40 -72 -431 0
40 72 -431 0
72 431 -40 0
40 431 -72 0
425 -432 0
429 -432 0
-430 -432 0
-431 -432 0
430 431 432 -425 -429 0
433 -399 0
433 -410 0
433 -421 0
433 -432 0
399 410 421 432 -433 0
388 -434 0
433 -434 0
434 -388 -433 0
434 -252 0
